100
128
9
6
28
35
35
43
9
61
38
53
63
18
11
49
57
10
39
51
37
27
45
57
52
14
21
39
33
58
59
45
32
59
51
41
40
56
15
3
50
42
2
19
30
52
25
36
26
41
53
1
53
26
20
47
2
33
62
23
34
5
50
30
56
29
28
47
5
26
16
24
1
53
61
8
27
19
17
1
22
3
45
2
20
2
19
28
36
64
3
23
35
61
24
28
21
51
15
20
50
7